p cnf 50 50
11 3 13 0
18 36 -19 0
36 23 -2 0
-24 45 -1 0
24 -43 -8 0
43 7 18 0
25 -49 33 0
-8 -25 -9 0
6 10 -18 0
-25 -34 29 0
-23 31 30 0
-2 3 36 0
-38 26 41 0
14 -23 -26 0
24 39 -5 0
-14 -31 -2 0
-5 -36 -2 0
-16 1 36 0
-13 -50 49 0
-26 -14 -20 0
7 -36 6 0
50 -1 -43 0
-4 -15 -31 0
38 -32 -24 0
34 -17 6 0
-3 -22 -43 0
-26 -12 36 0
18 32 -3 0
44 -39 -3 0
5 41 14 0
-21 10 24 0
36 33 21 0
6 -13 11 0
12 18 -2 0
-35 -21 29 0
48 37 -20 0
10 32 -31 0
46 11 37 0
38 -40 -18 0
33 40 1 0
15 -17 -35 0
29 42 9 0
49 12 27 0
17 1 -18 0
-26 37 -16 0
-13 40 27 0
-22 -24 -6 0
-17 -41 21 0
-23 -50 26 0
31 -29 -21 0
